
  22    4
  10   10   10   10

   0   0   0   0   0   9 2 3 4 5 6 8 11 12 21 
   8  10  10  10  10   5 20 19 18 13 9 
   3  10  10  10  10   5 20 18 10 9 7 
   7  10  10  10  10   3 19 17 9 
   4  10  10  10  10   3 18 17 9 
  10  10  10  10  10   2 18 9 
   5  10  10  10  10   4 17 16 15 14 
   3  10  10  10  10   4 18 16 15 14 
   7  10  10  10  10   3 16 15 14 
   8  10  10  10  10   3 16 15 14 
   5  10  10  10  10   3 17 15 14 
   1  10  10  10  10   3 16 15 14 
   3  10  10  10  10   2 17 14 
   5  10  10  10  10   1 22
   8  10  10  10  10   1 22
   7  10  10  10  10   1 22
   3  10  10  10  10   1 22
   6  10  10  10  10   1 22
   9  10  10  10  10   1 22
   1  10  10  10  10   1 22
   8  10  10  10  10   1 22
   0   0   0   0   0   0 
